p cnf 43 28
-11 -21 0
-21 -31 0 
-21 -41 0 
-31 -41 0
-12 -22 0
-22 -32 0
-22 -42 0
-32 -42 0
-13 -23 0
-23 -33 0
-23 -43 0
-33 -43 0
11 12 13 0
21 22 23 0
31 32 33 0
41 42 43 0
-11 -12 0
-11 -13 0
-12 -13 0
-21 -22 0
-21 -23 0
-22 -23 0
-31 -32 0
-31 -33 0
-32 -33 0
-41 -42 0
-41 -43 0
-42 -43 0
